db/data/3700655510938144722811457123196028365.z3.out
solvers/z3/run.sh: line 2: 102950 Killed                  z3 -smt2 $1
-------------------
81.722682825
